p cnf 200 1110
-101 -25 0
-101 -98 0
-101 -24 0
-101 74 0
-101 -1 0
-101 -57 0
-101 96 0
-101 -31 0
-101 -14 0
-101 -36 0
101 25 98 24 -74 1 57 -96 31 14 36 0
-102 42 0
-102 -16 0
-102 66 0
-102 -19 0
-102 54 0
-102 15 0
-102 -4 0
-102 -14 0
-102 -81 0
-102 -70 0
102 -42 16 -66 19 -54 -15 4 14 81 70 0
-103 44 0
-103 63 0
-103 89 0
-103 -45 0
-103 -16 0
-103 82 0
-103 -67 0
-103 -27 0
-103 30 0
-103 -99 0
103 -44 -63 -89 45 16 -82 67 27 -30 99 0
-104 50 0
-104 -57 0
-104 -38 0
-104 -100 0
-104 8 0
-104 93 0
-104 -99 0
-104 13 0
-104 85 0
-104 -44 0
104 -50 57 38 100 -8 -93 99 -13 -85 44 0
-105 -15 0
-105 50 0
-105 44 0
-105 -74 0
-105 -24 0
-105 -9 0
-105 95 0
-105 -68 0
-105 -12 0
-105 -62 0
105 15 -50 -44 74 24 9 -95 68 12 62 0
-106 -60 0
-106 61 0
-106 46 0
-106 20 0
-106 52 0
-106 -99 0
-106 -19 0
-106 39 0
-106 -69 0
-106 -9 0
106 60 -61 -46 -20 -52 99 19 -39 69 9 0
-107 -41 0
-107 57 0
-107 -21 0
-107 -56 0
-107 16 0
-107 75 0
-107 42 0
-107 95 0
-107 5 0
-107 23 0
107 41 -57 21 56 -16 -75 -42 -95 -5 -23 0
-108 -45 0
-108 5 0
-108 48 0
-108 78 0
-108 -17 0
-108 -55 0
-108 36 0
-108 20 0
-108 91 0
-108 77 0
108 45 -5 -48 -78 17 55 -36 -20 -91 -77 0
-109 15 0
-109 -40 0
-109 -9 0
-109 71 0
-109 -48 0
-109 35 0
-109 -77 0
-109 -90 0
-109 -23 0
-109 53 0
109 -15 40 9 -71 48 -35 77 90 23 -53 0
-110 9 0
-110 66 0
-110 -89 0
-110 6 0
-110 42 0
-110 90 0
-110 -98 0
-110 80 0
-110 54 0
-110 -41 0
110 -9 -66 89 -6 -42 -90 98 -80 -54 41 0
101 102 103 104 105 106 107 108 109 110 0
-111 -66 0
-111 -98 0
-111 71 0
-111 7 0
-111 -81 0
-111 62 0
-111 26 0
-111 -86 0
-111 -11 0
-111 72 0
111 66 98 -71 -7 81 -62 -26 86 11 -72 0
-112 98 0
-112 10 0
-112 -12 0
-112 41 0
-112 -20 0
-112 35 0
-112 82 0
-112 -34 0
-112 -66 0
-112 22 0
112 -98 -10 12 -41 20 -35 -82 34 66 -22 0
-113 -9 0
-113 30 0
-113 22 0
-113 -95 0
-113 -11 0
-113 -4 0
-113 1 0
-113 45 0
-113 23 0
-113 -15 0
113 9 -30 -22 95 11 4 -1 -45 -23 15 0
-114 -3 0
-114 -86 0
-114 44 0
-114 -60 0
-114 88 0
-114 -14 0
-114 -4 0
-114 -72 0
-114 82 0
-114 -96 0
114 3 86 -44 60 -88 14 4 72 -82 96 0
-115 55 0
-115 4 0
-115 -83 0
-115 34 0
-115 18 0
-115 -98 0
-115 89 0
-115 -52 0
-115 14 0
-115 -74 0
115 -55 -4 83 -34 -18 98 -89 52 -14 74 0
-116 77 0
-116 -13 0
-116 -5 0
-116 100 0
-116 -51 0
-116 -91 0
-116 69 0
-116 75 0
-116 42 0
-116 -73 0
116 -77 13 5 -100 51 91 -69 -75 -42 73 0
-117 78 0
-117 29 0
-117 10 0
-117 84 0
-117 -18 0
-117 51 0
-117 71 0
-117 57 0
-117 40 0
-117 11 0
117 -78 -29 -10 -84 18 -51 -71 -57 -40 -11 0
-118 44 0
-118 34 0
-118 -55 0
-118 -45 0
-118 99 0
-118 42 0
-118 85 0
-118 -8 0
-118 -97 0
-118 -11 0
118 -44 -34 55 45 -99 -42 -85 8 97 11 0
-119 35 0
-119 -24 0
-119 96 0
-119 -84 0
-119 77 0
-119 76 0
-119 2 0
-119 -58 0
-119 28 0
-119 51 0
119 -35 24 -96 84 -77 -76 -2 58 -28 -51 0
-120 -61 0
-120 -21 0
-120 77 0
-120 -72 0
-120 39 0
-120 -34 0
-120 -56 0
-120 75 0
-120 -9 0
-120 83 0
120 61 21 -77 72 -39 34 56 -75 9 -83 0
111 112 113 114 115 116 117 118 119 120 0
-121 -43 0
-121 -70 0
-121 -17 0
-121 60 0
-121 36 0
-121 -91 0
-121 -27 0
-121 -10 0
-121 97 0
-121 -77 0
121 43 70 17 -60 -36 91 27 10 -97 77 0
-122 59 0
-122 57 0
-122 -52 0
-122 38 0
-122 -10 0
-122 -35 0
-122 -97 0
-122 84 0
-122 62 0
-122 -29 0
122 -59 -57 52 -38 10 35 97 -84 -62 29 0
-123 94 0
-123 -14 0
-123 -69 0
-123 87 0
-123 98 0
-123 -7 0
-123 89 0
-123 -82 0
-123 64 0
-123 -84 0
123 -94 14 69 -87 -98 7 -89 82 -64 84 0
-124 51 0
-124 -60 0
-124 -86 0
-124 -66 0
-124 5 0
-124 10 0
-124 -21 0
-124 91 0
-124 -2 0
-124 -67 0
124 -51 60 86 66 -5 -10 21 -91 2 67 0
-125 -85 0
-125 71 0
-125 -87 0
-125 39 0
-125 59 0
-125 -97 0
-125 -1 0
-125 8 0
-125 -88 0
-125 -41 0
125 85 -71 87 -39 -59 97 1 -8 88 41 0
-126 -31 0
-126 -21 0
-126 49 0
-126 -29 0
-126 7 0
-126 11 0
-126 54 0
-126 -58 0
-126 -30 0
-126 -34 0
126 31 21 -49 29 -7 -11 -54 58 30 34 0
-127 61 0
-127 -9 0
-127 -77 0
-127 -26 0
-127 38 0
-127 -89 0
-127 -84 0
-127 47 0
-127 -30 0
-127 -96 0
127 -61 9 77 26 -38 89 84 -47 30 96 0
-128 71 0
-128 -7 0
-128 22 0
-128 39 0
-128 1 0
-128 37 0
-128 -78 0
-128 -49 0
-128 59 0
-128 -6 0
128 -71 7 -22 -39 -1 -37 78 49 -59 6 0
-129 68 0
-129 84 0
-129 -55 0
-129 -53 0
-129 -48 0
-129 1 0
-129 83 0
-129 -43 0
-129 64 0
-129 -51 0
129 -68 -84 55 53 48 -1 -83 43 -64 51 0
-130 29 0
-130 21 0
-130 3 0
-130 12 0
-130 67 0
-130 23 0
-130 -91 0
-130 -84 0
-130 -46 0
-130 49 0
130 -29 -21 -3 -12 -67 -23 91 84 46 -49 0
121 122 123 124 125 126 127 128 129 130 0
-131 -20 0
-131 -62 0
-131 -70 0
-131 -73 0
-131 -8 0
-131 -46 0
-131 92 0
-131 -96 0
-131 18 0
-131 9 0
131 20 62 70 73 8 46 -92 96 -18 -9 0
-132 -77 0
-132 37 0
-132 -7 0
-132 86 0
-132 83 0
-132 -14 0
-132 3 0
-132 -76 0
-132 -11 0
-132 48 0
132 77 -37 7 -86 -83 14 -3 76 11 -48 0
-133 50 0
-133 26 0
-133 76 0
-133 23 0
-133 -99 0
-133 52 0
-133 48 0
-133 -44 0
-133 49 0
-133 73 0
133 -50 -26 -76 -23 99 -52 -48 44 -49 -73 0
-134 -48 0
-134 -43 0
-134 33 0
-134 97 0
-134 41 0
-134 29 0
-134 -25 0
-134 -22 0
-134 47 0
-134 12 0
134 48 43 -33 -97 -41 -29 25 22 -47 -12 0
-135 28 0
-135 -85 0
-135 54 0
-135 4 0
-135 65 0
-135 -39 0
-135 -45 0
-135 97 0
-135 82 0
-135 58 0
135 -28 85 -54 -4 -65 39 45 -97 -82 -58 0
-136 -33 0
-136 -7 0
-136 51 0
-136 71 0
-136 9 0
-136 -65 0
-136 90 0
-136 23 0
-136 85 0
-136 -55 0
136 33 7 -51 -71 -9 65 -90 -23 -85 55 0
-137 14 0
-137 20 0
-137 44 0
-137 -13 0
-137 -51 0
-137 -22 0
-137 3 0
-137 48 0
-137 1 0
-137 36 0
137 -14 -20 -44 13 51 22 -3 -48 -1 -36 0
-138 93 0
-138 8 0
-138 -62 0
-138 35 0
-138 71 0
-138 -50 0
-138 66 0
-138 -47 0
-138 -75 0
-138 -73 0
138 -93 -8 62 -35 -71 50 -66 47 75 73 0
-139 -99 0
-139 18 0
-139 74 0
-139 87 0
-139 80 0
-139 2 0
-139 20 0
-139 78 0
-139 -19 0
-139 11 0
139 99 -18 -74 -87 -80 -2 -20 -78 19 -11 0
-140 80 0
-140 89 0
-140 21 0
-140 -96 0
-140 -34 0
-140 -62 0
-140 -9 0
-140 33 0
-140 7 0
-140 -83 0
140 -80 -89 -21 96 34 62 9 -33 -7 83 0
131 132 133 134 135 136 137 138 139 140 0
-141 -33 0
-141 99 0
-141 -74 0
-141 -84 0
-141 40 0
-141 3 0
-141 -80 0
-141 2 0
-141 98 0
-141 39 0
141 33 -99 74 84 -40 -3 80 -2 -98 -39 0
-142 98 0
-142 47 0
-142 12 0
-142 -99 0
-142 -74 0
-142 80 0
-142 -83 0
-142 -75 0
-142 24 0
-142 17 0
142 -98 -47 -12 99 74 -80 83 75 -24 -17 0
-143 -43 0
-143 93 0
-143 -32 0
-143 -6 0
-143 74 0
-143 5 0
-143 -54 0
-143 -36 0
-143 -72 0
-143 10 0
143 43 -93 32 6 -74 -5 54 36 72 -10 0
-144 -31 0
-144 -39 0
-144 6 0
-144 19 0
-144 -60 0
-144 -48 0
-144 -28 0
-144 13 0
-144 72 0
-144 2 0
144 31 39 -6 -19 60 48 28 -13 -72 -2 0
-145 64 0
-145 49 0
-145 -24 0
-145 -26 0
-145 -51 0
-145 -4 0
-145 -22 0
-145 53 0
-145 40 0
-145 -72 0
145 -64 -49 24 26 51 4 22 -53 -40 72 0
-146 -64 0
-146 -93 0
-146 58 0
-146 -86 0
-146 -15 0
-146 -18 0
-146 49 0
-146 -92 0
-146 78 0
-146 1 0
146 64 93 -58 86 15 18 -49 92 -78 -1 0
-147 -68 0
-147 -49 0
-147 54 0
-147 52 0
-147 -63 0
-147 14 0
-147 -70 0
-147 2 0
-147 17 0
-147 -1 0
147 68 49 -54 -52 63 -14 70 -2 -17 1 0
-148 74 0
-148 -61 0
-148 11 0
-148 81 0
-148 17 0
-148 -97 0
-148 -14 0
-148 86 0
-148 -52 0
-148 13 0
148 -74 61 -11 -81 -17 97 14 -86 52 -13 0
-149 50 0
-149 83 0
-149 14 0
-149 -98 0
-149 -93 0
-149 29 0
-149 64 0
-149 57 0
-149 -56 0
-149 68 0
149 -50 -83 -14 98 93 -29 -64 -57 56 -68 0
-150 -16 0
-150 41 0
-150 -14 0
-150 82 0
-150 44 0
-150 88 0
-150 -21 0
-150 -18 0
-150 74 0
-150 65 0
150 16 -41 14 -82 -44 -88 21 18 -74 -65 0
141 142 143 144 145 146 147 148 149 150 0
-151 18 0
-151 -42 0
-151 -74 0
-151 96 0
-151 -98 0
-151 10 0
-151 -64 0
-151 71 0
-151 -73 0
-151 -66 0
151 -18 42 74 -96 98 -10 64 -71 73 66 0
-152 17 0
-152 -29 0
-152 -69 0
-152 16 0
-152 -11 0
-152 -58 0
-152 -85 0
-152 1 0
-152 36 0
-152 20 0
152 -17 29 69 -16 11 58 85 -1 -36 -20 0
-153 -71 0
-153 50 0
-153 -81 0
-153 69 0
-153 56 0
-153 -21 0
-153 100 0
-153 -76 0
-153 -68 0
-153 -15 0
153 71 -50 81 -69 -56 21 -100 76 68 15 0
-154 68 0
-154 -63 0
-154 60 0
-154 25 0
-154 -97 0
-154 51 0
-154 14 0
-154 53 0
-154 23 0
-154 -77 0
154 -68 63 -60 -25 97 -51 -14 -53 -23 77 0
-155 -13 0
-155 95 0
-155 -57 0
-155 -52 0
-155 28 0
-155 -7 0
-155 99 0
-155 -82 0
-155 -37 0
-155 -39 0
155 13 -95 57 52 -28 7 -99 82 37 39 0
-156 -14 0
-156 -18 0
-156 -71 0
-156 -2 0
-156 -85 0
-156 -93 0
-156 -78 0
-156 -29 0
-156 -55 0
-156 -19 0
156 14 18 71 2 85 93 78 29 55 19 0
-157 -63 0
-157 -10 0
-157 -77 0
-157 -80 0
-157 -75 0
-157 54 0
-157 -31 0
-157 85 0
-157 23 0
-157 62 0
157 63 10 77 80 75 -54 31 -85 -23 -62 0
-158 -20 0
-158 78 0
-158 54 0
-158 -58 0
-158 40 0
-158 76 0
-158 15 0
-158 -83 0
-158 -22 0
-158 -37 0
158 20 -78 -54 58 -40 -76 -15 83 22 37 0
-159 34 0
-159 -14 0
-159 -83 0
-159 -4 0
-159 64 0
-159 -84 0
-159 -23 0
-159 12 0
-159 57 0
-159 15 0
159 -34 14 83 4 -64 84 23 -12 -57 -15 0
-160 -93 0
-160 86 0
-160 -47 0
-160 -87 0
-160 -45 0
-160 -81 0
-160 2 0
-160 -96 0
-160 -35 0
-160 -39 0
160 93 -86 47 87 45 81 -2 96 35 39 0
151 152 153 154 155 156 157 158 159 160 0
-161 51 0
-161 99 0
-161 10 0
-161 88 0
-161 -73 0
-161 55 0
-161 -50 0
-161 -95 0
-161 61 0
-161 -22 0
161 -51 -99 -10 -88 73 -55 50 95 -61 22 0
-162 6 0
-162 -98 0
-162 -88 0
-162 50 0
-162 -54 0
-162 68 0
-162 -47 0
-162 -93 0
-162 46 0
-162 100 0
162 -6 98 88 -50 54 -68 47 93 -46 -100 0
-163 -43 0
-163 59 0
-163 44 0
-163 51 0
-163 -68 0
-163 62 0
-163 6 0
-163 64 0
-163 95 0
-163 55 0
163 43 -59 -44 -51 68 -62 -6 -64 -95 -55 0
-164 -15 0
-164 1 0
-164 42 0
-164 25 0
-164 -30 0
-164 13 0
-164 96 0
-164 70 0
-164 -92 0
-164 -29 0
164 15 -1 -42 -25 30 -13 -96 -70 92 29 0
-165 -79 0
-165 -7 0
-165 25 0
-165 -21 0
-165 -11 0
-165 54 0
-165 75 0
-165 33 0
-165 -62 0
-165 -67 0
165 79 7 -25 21 11 -54 -75 -33 62 67 0
-166 -16 0
-166 -74 0
-166 -76 0
-166 -46 0
-166 78 0
-166 -57 0
-166 -18 0
-166 56 0
-166 58 0
-166 4 0
166 16 74 76 46 -78 57 18 -56 -58 -4 0
-167 -84 0
-167 -39 0
-167 91 0
-167 -2 0
-167 -53 0
-167 92 0
-167 30 0
-167 -81 0
-167 -63 0
-167 -36 0
167 84 39 -91 2 53 -92 -30 81 63 36 0
-168 -1 0
-168 -11 0
-168 -21 0
-168 -85 0
-168 -14 0
-168 -59 0
-168 26 0
-168 -4 0
-168 -19 0
-168 2 0
168 1 11 21 85 14 59 -26 4 19 -2 0
-169 17 0
-169 7 0
-169 -52 0
-169 28 0
-169 -13 0
-169 -74 0
-169 22 0
-169 -26 0
-169 -80 0
-169 -75 0
169 -17 -7 52 -28 13 74 -22 26 80 75 0
-170 92 0
-170 84 0
-170 46 0
-170 -23 0
-170 78 0
-170 -18 0
-170 44 0
-170 57 0
-170 32 0
-170 -60 0
170 -92 -84 -46 23 -78 18 -44 -57 -32 60 0
161 162 163 164 165 166 167 168 169 170 0
-171 -95 0
-171 -40 0
-171 -9 0
-171 -29 0
-171 31 0
-171 -21 0
-171 -37 0
-171 -61 0
-171 67 0
-171 100 0
171 95 40 9 29 -31 21 37 61 -67 -100 0
-172 -49 0
-172 2 0
-172 77 0
-172 -52 0
-172 -58 0
-172 -46 0
-172 -27 0
-172 5 0
-172 79 0
-172 36 0
172 49 -2 -77 52 58 46 27 -5 -79 -36 0
-173 -97 0
-173 74 0
-173 5 0
-173 14 0
-173 2 0
-173 39 0
-173 -46 0
-173 35 0
-173 -11 0
-173 -82 0
173 97 -74 -5 -14 -2 -39 46 -35 11 82 0
-174 28 0
-174 -55 0
-174 61 0
-174 -99 0
-174 100 0
-174 -3 0
-174 58 0
-174 -18 0
-174 53 0
-174 -64 0
174 -28 55 -61 99 -100 3 -58 18 -53 64 0
-175 64 0
-175 -57 0
-175 80 0
-175 -9 0
-175 78 0
-175 -100 0
-175 -68 0
-175 -99 0
-175 92 0
-175 43 0
175 -64 57 -80 9 -78 100 68 99 -92 -43 0
-176 -13 0
-176 -98 0
-176 -12 0
-176 92 0
-176 -74 0
-176 54 0
-176 45 0
-176 -67 0
-176 60 0
-176 -57 0
176 13 98 12 -92 74 -54 -45 67 -60 57 0
-177 77 0
-177 99 0
-177 -95 0
-177 -2 0
-177 53 0
-177 100 0
-177 45 0
-177 -73 0
-177 9 0
-177 -5 0
177 -77 -99 95 2 -53 -100 -45 73 -9 5 0
-178 92 0
-178 -94 0
-178 10 0
-178 49 0
-178 -30 0
-178 -23 0
-178 57 0
-178 -34 0
-178 -36 0
-178 -7 0
178 -92 94 -10 -49 30 23 -57 34 36 7 0
-179 -22 0
-179 -27 0
-179 10 0
-179 87 0
-179 40 0
-179 -36 0
-179 58 0
-179 23 0
-179 -13 0
-179 93 0
179 22 27 -10 -87 -40 36 -58 -23 13 -93 0
-180 -26 0
-180 71 0
-180 -24 0
-180 -6 0
-180 56 0
-180 -44 0
-180 89 0
-180 7 0
-180 86 0
-180 -66 0
180 26 -71 24 6 -56 44 -89 -7 -86 66 0
171 172 173 174 175 176 177 178 179 180 0
-181 -77 0
-181 40 0
-181 -57 0
-181 19 0
-181 96 0
-181 -6 0
-181 11 0
-181 91 0
-181 -69 0
-181 -89 0
181 77 -40 57 -19 -96 6 -11 -91 69 89 0
-182 23 0
-182 -40 0
-182 -75 0
-182 100 0
-182 80 0
-182 -2 0
-182 -45 0
-182 87 0
-182 95 0
-182 -34 0
182 -23 40 75 -100 -80 2 45 -87 -95 34 0
-183 -25 0
-183 -85 0
-183 27 0
-183 -8 0
-183 -47 0
-183 42 0
-183 -32 0
-183 28 0
-183 76 0
-183 88 0
183 25 85 -27 8 47 -42 32 -28 -76 -88 0
-184 -58 0
-184 7 0
-184 33 0
-184 -31 0
-184 5 0
-184 -9 0
-184 64 0
-184 39 0
-184 80 0
-184 -46 0
184 58 -7 -33 31 -5 9 -64 -39 -80 46 0
-185 -32 0
-185 -70 0
-185 -84 0
-185 66 0
-185 -58 0
-185 56 0
-185 43 0
-185 71 0
-185 75 0
-185 -57 0
185 32 70 84 -66 58 -56 -43 -71 -75 57 0
-186 27 0
-186 84 0
-186 57 0
-186 7 0
-186 34 0
-186 -72 0
-186 28 0
-186 -82 0
-186 -93 0
-186 -87 0
186 -27 -84 -57 -7 -34 72 -28 82 93 87 0
-187 -44 0
-187 -49 0
-187 63 0
-187 57 0
-187 79 0
-187 88 0
-187 92 0
-187 14 0
-187 45 0
-187 -41 0
187 44 49 -63 -57 -79 -88 -92 -14 -45 41 0
-188 -48 0
-188 72 0
-188 71 0
-188 -21 0
-188 -32 0
-188 45 0
-188 -22 0
-188 78 0
-188 33 0
-188 -15 0
188 48 -72 -71 21 32 -45 22 -78 -33 15 0
-189 59 0
-189 76 0
-189 -78 0
-189 -13 0
-189 -15 0
-189 -14 0
-189 -64 0
-189 -97 0
-189 -17 0
-189 -4 0
189 -59 -76 78 13 15 14 64 97 17 4 0
-190 -36 0
-190 77 0
-190 -88 0
-190 -64 0
-190 -34 0
-190 -20 0
-190 100 0
-190 -98 0
-190 -78 0
-190 -75 0
190 36 -77 88 64 34 20 -100 98 78 75 0
181 182 183 184 185 186 187 188 189 190 0
-191 -46 0
-191 91 0
-191 50 0
-191 53 0
-191 -93 0
-191 37 0
-191 63 0
-191 -60 0
-191 61 0
-191 -55 0
191 46 -91 -50 -53 93 -37 -63 60 -61 55 0
-192 -2 0
-192 -17 0
-192 39 0
-192 83 0
-192 -41 0
-192 -23 0
-192 34 0
-192 -67 0
-192 98 0
-192 -24 0
192 2 17 -39 -83 41 23 -34 67 -98 24 0
-193 -17 0
-193 -35 0
-193 4 0
-193 -51 0
-193 36 0
-193 -18 0
-193 34 0
-193 -14 0
-193 -96 0
-193 -80 0
193 17 35 -4 51 -36 18 -34 14 96 80 0
-194 -81 0
-194 -23 0
-194 25 0
-194 -38 0
-194 -24 0
-194 -45 0
-194 66 0
-194 -78 0
-194 -15 0
-194 -50 0
194 81 23 -25 38 24 45 -66 78 15 50 0
-195 45 0
-195 34 0
-195 -15 0
-195 11 0
-195 -60 0
-195 18 0
-195 89 0
-195 9 0
-195 84 0
-195 -56 0
195 -45 -34 15 -11 60 -18 -89 -9 -84 56 0
-196 -32 0
-196 7 0
-196 -10 0
-196 34 0
-196 25 0
-196 -31 0
-196 42 0
-196 -47 0
-196 -22 0
-196 -28 0
196 32 -7 10 -34 -25 31 -42 47 22 28 0
-197 90 0
-197 79 0
-197 54 0
-197 -43 0
-197 -14 0
-197 86 0
-197 -97 0
-197 84 0
-197 27 0
-197 1 0
197 -90 -79 -54 43 14 -86 97 -84 -27 -1 0
-198 10 0
-198 -63 0
-198 -9 0
-198 70 0
-198 82 0
-198 -53 0
-198 -38 0
-198 50 0
-198 -28 0
-198 -22 0
198 -10 63 9 -70 -82 53 38 -50 28 22 0
-199 -55 0
-199 87 0
-199 28 0
-199 90 0
-199 12 0
-199 65 0
-199 98 0
-199 10 0
-199 -69 0
-199 38 0
199 55 -87 -28 -90 -12 -65 -98 -10 69 -38 0
-200 33 0
-200 2 0
-200 -61 0
-200 52 0
-200 70 0
-200 -62 0
-200 19 0
-200 79 0
-200 -13 0
-200 -55 0
200 -33 -2 61 -52 -70 62 -19 -79 13 55 0
191 192 193 194 195 196 197 198 199 200 0
